[LevelRange]	Index	MinLev	MaxLev			
0	1	1	51			
1	2	52	79			
2	3	100	109			
3	4	110	139			
4	5	140	169		
						
[Reward]	RewardIdx	BattleStyle	LevelRangeIndex	ElapsedTime	ItemIdx	ItemOpt
0	1	1	3	60	3078	0
1	2	2	3	60	3078	0
2	3	3	3	60	3078	0
3	4	4	3	60	3078	0
4	5	5	3	60	3078	0
5	6	6	3	60	3078	0
6	7	1	3	180	3079	0
7	8	2	3	180	3079	0
8	9	3	3	180	3079	0
9	10	4	3	180	3079	0
10	11	5	3	180	3079	0
11	12	6	3	180	3079	0
12	13	1	3	360	3080	0
13	14	2	3	360	3080	0
14	15	3	3	360	3080	0
15	16	4	3	360	3080	0
16	17	5	3	360	3080	0
17	18	6	3	360	3080	0
18	19	1	3	600	3081	0
19	20	2	3	600	3081	0
20	21	3	3	600	3081	0
21	22	4	3	600	3081	0
22	23	5	3	600	3081	0
23	24	6	3	600	3081	0
24	25	1	3	960	3082	0
25	26	2	3	960	3082	0
26	27	3	3	960	3082	0
27	28	4	3	960	3082	0
28	29	5	3	960	3082	0
29	30	6	3	960	3082	0
30	31	1	3	1440	3083	0
31	32	2	3	1440	3083	0
32	33	3	3	1440	3083	0
33	34	4	3	1440	3083	0
34	35	5	3	1440	3083	0
35	36	6	3	1440	3083	0
36	37	1	4	60	3078	0
37	38	2	4	60	3078	0
38	39	3	4	60	3078	0
39	40	4	4	60	3078	0
40	41	5	4	60	3078	0
41	42	6	4	60	3078	0
42	43	1	4	180	3079	0
43	44	2	4	180	3079	0
44	45	3	4	180	3079	0
45	46	4	4	180	3079	0
46	47	5	4	180	3079	0
47	48	6	4	180	3079	0
48	49	1	4	360	3080	0
49	50	2	4	360	3080	0
50	51	3	4	360	3080	0
51	52	4	4	360	3080	0
52	53	5	4	360	3080	0
53	54	6	4	360	3080	0
54	55	1	4	600	3081	0
55	56	2	4	600	3081	0
56	57	3	4	600	3081	0
57	58	4	4	600	3081	0
58	59	5	4	600	3081	0
59	60	6	4	600	3081	0
60	61	1	4	960	3082	0
61	62	2	4	960	3082	0
62	63	3	4	960	3082	0
63	64	4	4	960	3082	0
64	65	5	4	960	3082	0
65	66	6	4	960	3082	0
66	67	1	4	1440	3083	0
67	68	2	4	1440	3083	0
68	69	3	4	1440	3083	0
69	70	4	4	1440	3083	0
70	71	5	4	1440	3083	0
71	72	6	4	1440	3083	0
72	73	1	5	60	3078	0
73	74	2	5	60	3078	0
74	75	3	5	60	3078	0
75	76	4	5	60	3078	0
76	77	5	5	60	3078	0
77	78	6	5	60	3078	0
78	79	1	5	180	3079	0
79	80	2	5	180	3079	0
80	81	3	5	180	3079	0
81	82	4	5	180	3079	0
82	83	5	5	180	3079	0
83	84	6	5	180	3079	0
84	85	1	5	360	3080	0
85	86	2	5	360	3080	0
86	87	3	5	360	3080	0
87	88	4	5	360	3080	0
88	89	5	5	360	3080	0
89	90	6	5	360	3080	0
90	91	1	5	600	3081	0
91	92	2	5	600	3081	0
92	93	3	5	600	3081	0
93	94	4	5	600	3081	0
94	95	5	5	600	3081	0
95	96	6	5	600	3081	0
96	97	1	5	960	3082	0
97	98	2	5	960	3082	0
98	99	3	5	960	3082	0
99	100	4	5	960	3082	0
100	101	5	5	960	3082	0
101	102	6	5	960	3082	0
102	103	1	5	1440	3083	0
103	104	2	5	1440	3083	0
104	105	3	5	1440	3083	0
105	106	4	5	1440	3083	0
106	107	5	5	1440	3083	0
107	108	6	5	1440	3083	0